  8	62
 14
  0	 48	 39	 15	110	101	 17	 57	119	 13	 77	 75	 79	125	
 14
  0	 42	 61	123	  8	104	 29	 70	 10	 91	  7	 69	 72	125	
 20
  0	 31	 27	 93	 35	 89	 46	 50	108	 59	112	  2	 18	 41	103	 97	 80	121	 64	125	
 10
  0	 11	 21	 23	 73	  6	 85	 83	 68	125	
 18
  0	 56	118	 33	 54	 95	 30	116	 34	 92	 52	 22	114	 43	 84	105	 96	125	
 20
  0	 37	 12	 99	 26	 88	 25	 16	 74	 55	 87	 51	 58	117	 78	113	120	 45	107	125	
 22
  0	 62	 40	 38	 49	124	111	 32	100	102	 24	 53	 94	 86	 19	 81	  9	115	 71	 14	 76	125	
 22
  0	 44	 36	 20	 82	 47	106	 98	109	  3	  5	  1	 28	 90	 67	 63	 65	 60	  4	 66	122	125	
